8
Lattice="0.0 3.6 3.6 3.6 0.0 3.6 3.6 3.6 0.0" Properties=species:S:1:pos:R:3:forces:R:3 energy=-27.622615177843876 pbc="T T T"
Cu      -0.04945607      -0.01838933       0.06439626      -0.01459779       0.12819022       0.10740306
Cu       1.80969872       1.84601154       0.02885519       0.03926208       0.00051143      -0.03617669
Cu       1.76817682       0.02709761       1.78417023      -0.12302322       0.12262293      -0.21720439
Cu       3.58388054       1.80485837       1.72370348      -0.03701473       0.01643801       0.08598812
Cu       0.05960831       1.76644552       1.85001347       0.17616612       0.09933238      -0.02915214
Cu       1.80681606       3.67660165       1.76700153       0.07281276      -0.12616003       0.14299385
Cu       1.78441026       1.81688846       3.48962645      -0.01564753      -0.06737591      -0.06390601
Cu       3.64139607       3.67708152       3.65634034      -0.00613613      -0.03927849       0.22899099
8
Lattice="0.0 3.6 3.6 3.6 0.0 3.6 3.6 3.6 0.0" Properties=species:S:1:pos:R:3:forces:R:3 energy=-27.240237935379362 pbc="T T T"
Cu      -0.03590906       0.00163039       0.00140249       0.17039094      -0.02488587      -0.04997486
Cu       1.80141361       1.80276729      -0.02407814       0.00995975       0.01283432      -0.07342219
Cu       1.77082962      -0.04310803       1.72559127      -0.06204753       0.08132737       0.16418010
Cu       3.61081534       1.84921882       1.77284579      -0.02265008      -0.06479652      -0.02833712
Cu      -0.02793075       1.78417586       1.77696801      -0.09951314      -0.02728718       0.04224441
Cu       1.72818651       3.66825540       1.82194999      -0.00813430       0.12345776       0.01508880
Cu       1.76441525       1.81485859       3.57807714       0.04811195      -0.01487575       0.13156657
Cu       3.58941813       3.61819819       3.64764822      -0.12223456      -0.03035913      -0.11736887
8
Lattice="0.0 3.6 3.6 3.6 0.0 3.6 3.6 3.6 0.0" Properties=species:S:1:pos:R:3:forces:R:3 energy=-27.59550914874868 pbc="T T T"
Cu       0.04131368       0.04251611      -0.02578838       0.02540587      -0.02852868       0.03145035
Cu       1.88290567       1.78513687      -0.06916886       0.00761215       0.02546329       0.20012312
Cu       1.78593977       0.01800103       1.78828040      -0.03052079      -0.05397629       0.14136308
Cu       3.71327603       1.84276933       1.88656397      -0.07057006       0.17198895      -0.01941978
Cu       0.06929427       1.71571077       1.78111207       0.00738395       0.07336283       0.12131097
Cu       1.66357572       3.56768016       1.85575521       0.09969987      -0.02036354      -0.03664288
Cu       1.75783945       1.76816558       3.61630671       0.03474726       0.01347191      -0.06422731
Cu       3.63936583       3.58218433       3.58720939       0.04107281       0.09941196       0.01665067
8
Lattice="0.0 3.6 3.6 3.6 0.0 3.6 3.6 3.6 0.0" Properties=species:S:1:pos:R:3:forces:R:3 energy=-28.35306364304339 pbc="T T T"
Cu       0.07819999       0.02051511      -0.00779065       0.04049876      -0.03808263       0.10005068
Cu       1.80501074       1.77199451      -0.05156490       0.11084188      -0.05347831       0.14629226
Cu       1.82382643      -0.04266252       1.78208540      -0.01900803       0.20619446      -0.04915542
Cu       3.59554000       1.81925521       1.82305810       0.00637563       0.02131894      -0.07507960
Cu       0.00271118       1.70343462       1.78967037      -0.17253795      -0.07996039       0.10796057
Cu       1.76122303       3.59443262       1.84956631      -0.03286666      -0.03267066       0.15168019
Cu       1.84024121       1.81101651       3.62528799       0.04935378       0.07023084       0.08494487
Cu       3.52557959       3.60974337       3.63122554      -0.09074180       0.01247262       0.01502169
8
Lattice="0.0 3.6 3.6 3.6 0.0 3.6 3.6 3.6 0.0" Properties=species:S:1:pos:R:3:forces:R:3 energy=-27.319530679639247 pbc="T T T"
Cu      -0.00794333      -0.05465159       0.02318899      -0.04580613       0.07159555       0.15545940
Cu       1.71707686       1.75314666      -0.04046691       0.12202803      -0.05533927       0.03247540
Cu       1.77939342       0.04205463       1.88283402      -0.11660870      -0.01045731       0.10460170
Cu       3.68611477       1.84031297       1.82198469       0.00320262      -0.28513693      -0.22512634
Cu      -0.11682744       1.85650598       1.93144733      -0.08015856       0.13332417       0.01990853
Cu       1.82264382       3.61170197       1.83493479       0.01412731      -0.13159672       0.01464317
Cu       1.83643143       1.80674582       3.58130921      -0.22751723       0.03418322       0.11792404
Cu       3.61808796       3.53141054       3.50587867      -0.08175873       0.10843961      -0.07198954
8
Lattice="0.0 3.6 3.6 3.6 0.0 3.6 3.6 3.6 0.0" Properties=species:S:1:pos:R:3:forces:R:3 energy=-28.244509197304755 pbc="T T T"
Cu       0.00736874      -0.00679681       0.00469338       0.09759745       0.03347800       0.01164210
Cu       1.87634769       1.84406080      -0.03388607       0.00684504      -0.00863103       0.04075285
Cu       1.66175189       0.04474017       1.83819548      -0.03972260      -0.19577047       0.00778001
Cu       3.60827558       1.77209046       1.87992039      -0.04605971      -0.13769206       0.07806850
Cu      -0.08936059       1.76078108       1.72668274      -0.03802459      -0.17452345      -0.00747655
Cu       1.81856535       3.57667287       1.90555952      -0.06747657      -0.17015472       0.03121867
Cu       1.80089032       1.78805965       3.62863502      -0.10505591       0.07183708      -0.08974894
Cu       3.56339016       3.54580454       3.62675030       0.09770464       0.04254235       0.01086099
8
Lattice="0.0 3.6 3.6 3.6 0.0 3.6 3.6 3.6 0.0" Properties=species:S:1:pos:R:3:forces:R:3 energy=-28.42186269729318 pbc="T T T"
Cu      -0.03779177       0.04524053       0.02517778       0.06469933      -0.17791686       0.00928920
Cu       1.78188004       1.82903187      -0.05127911       0.00178343       0.03890988      -0.16962977
Cu       1.73601171      -0.00477832       1.80355584      -0.20308610       0.11095621       0.01107198
Cu       3.62139533       1.80325234       1.86203567       0.04101621       0.16166315       0.01738380
Cu      -0.06452518       1.82841631       1.81128215      -0.19641489      -0.03120884       0.08183743
Cu       1.86781055       3.60624580       1.81581519      -0.04254108      -0.03028719      -0.06015575
Cu       1.88806420       1.83981455       3.63042779       0.14678756       0.12433022      -0.18098024
Cu       3.58049334       3.60694750       3.51737936       0.19042869      -0.07740825       0.20276391
8
Lattice="0.0 3.6 3.6 3.6 0.0 3.6 3.6 3.6 0.0" Properties=species:S:1:pos:R:3:forces:R:3 energy=-27.82737623582008 pbc="T T T"
Cu      -0.06569672       0.05508084      -0.02832150      -0.08765148      -0.03258653      -0.32982814
Cu       1.79221395       1.84416871      -0.03698282       0.02138517      -0.00693061       0.12130145
Cu       1.81576563       0.01537321       1.85956330      -0.17559602      -0.00785853      -0.03054076
Cu       3.66833286       1.89395072       1.81519351      -0.12631874      -0.14681596      -0.11755062
Cu       0.02043608       1.77157031       1.76165591       0.09838877       0.09852950      -0.14399460
Cu       1.73394150       3.58868583       1.80782012      -0.01667317       0.04733881       0.03256599
Cu       1.80101085       1.82866611       3.53219020      -0.15184773      -0.06016744      -0.14357356
Cu       3.68663021       3.61535546       3.65466018       0.10164111       0.25953058      -0.00498710
